NAME : X_38_seed_123_id_11
TYPE : CVRP
DIMENSION : 275
EDGE_WEIGHT_TYPE : EUC_2D
CAPACITY : 10
NODE_COORD_SECTION
1	15	632
2	666	871
3	779	918
4	870	435
5	931	486
6	929	516
7	849	428
8	809	476
9	823	910
10	734	928
11	658	878
12	757	454
13	645	965
14	648	850
15	701	898
16	864	948
17	811	991
18	883	457
19	726	880
20	808	954
21	878	454
22	745	713
23	926	709
24	829	940
25	819	483
26	937	496
27	870	417
28	804	924
29	809	935
30	784	910
31	533	862
32	853	444
33	691	868
34	914	379
35	853	952
36	759	912
37	697	880
38	770	929
39	667	843
40	747	858
41	868	427
42	674	823
43	784	933
44	690	798
45	763	888
46	736	859
47	749	897
48	661	931
49	817	957
50	762	992
51	704	791
52	677	900
53	695	818
54	834	598
55	653	902
56	787	823
57	679	981
58	802	964
59	735	992
60	797	984
61	901	455
62	619	800
63	866	471
64	639	887
65	877	439
66	637	880
67	943	303
68	684	975
69	776	838
70	839	925
71	701	841
72	828	910
73	837	492
74	570	823
75	689	858
76	884	443
77	864	563
78	730	923
79	828	965
80	777	946
81	783	934
82	916	832
83	945	618
84	887	462
85	860	463
86	618	925
87	784	860
88	834	372
89	902	419
90	876	432
91	707	914
92	813	938
93	665	806
94	763	885
95	698	849
96	866	364
97	670	912
98	694	889
99	906	446
100	855	425
101	686	820
102	788	844
103	646	823
104	759	913
105	760	905
106	914	491
107	943	483
108	634	893
109	734	887
110	598	848
111	773	449
112	598	843
113	841	489
114	751	897
115	855	399
116	708	873
117	685	887
118	757	682
119	843	841
120	825	976
121	803	929
122	648	946
123	841	462
124	950	388
125	842	363
126	921	836
127	813	460
128	968	400
129	749	901
130	629	845
131	903	852
132	704	762
133	627	942
134	933	511
135	481	916
136	669	826
137	640	804
138	812	922
139	913	389
140	817	925
141	751	912
142	703	932
143	572	402
144	831	420
145	810	859
146	687	849
147	820	885
148	758	908
149	671	881
150	645	888
151	604	822
152	767	927
153	569	823
154	786	955
155	774	850
156	911	456
157	877	468
158	751	927
159	774	943
160	726	867
161	951	367
162	898	438
163	584	873
164	1000	410
165	853	327
166	780	906
167	759	904
168	883	401
169	623	917
170	907	884
171	758	353
172	875	959
173	744	879
174	676	788
175	895	407
176	804	541
177	844	451
178	679	791
179	655	832
180	779	953
181	778	928
182	768	469
183	859	415
184	796	937
185	734	867
186	760	940
187	858	435
188	797	861
189	792	820
190	722	805
191	815	856
192	959	555
193	677	760
194	619	795
195	787	834
196	768	930
197	802	989
198	684	857
199	726	966
200	922	964
201	627	828
202	857	371
203	801	554
204	620	908
205	668	860
206	675	942
207	858	584
208	760	912
209	949	373
210	736	707
211	588	783
212	467	841
213	670	897
214	731	827
215	945	962
216	660	810
217	830	857
218	843	785
219	623	944
220	760	480
221	826	998
222	960	564
223	684	812
224	634	980
225	862	408
226	828	714
227	837	849
228	541	826
229	857	435
230	831	446
231	810	779
232	690	854
233	737	801
234	672	911
235	790	427
236	790	890
237	603	874
238	599	790
239	936	431
240	816	989
241	869	389
242	835	429
243	876	795
244	753	870
245	781	295
246	703	360
247	970	472
248	903	600
249	922	892
250	792	860
251	724	763
252	606	957
253	891	467
254	629	895
255	901	427
256	774	926
257	737	695
258	586	815
259	714	894
260	759	441
261	740	882
262	619	898
263	892	493
264	671	900
265	935	345
266	765	320
267	864	670
268	733	500
269	730	947
270	797	211
271	633	910
272	772	865
273	740	324
274	599	316
275	934	443
DEMAND_SECTION
1	0
2	1
3	1
4	1
5	1
6	1
7	1
8	1
9	1
10	1
11	1
12	1
13	1
14	1
15	1
16	1
17	1
18	1
19	1
20	1
21	1
22	1
23	1
24	1
25	1
26	1
27	1
28	1
29	1
30	1
31	1
32	1
33	1
34	1
35	1
36	1
37	1
38	1
39	1
40	1
41	1
42	1
43	1
44	1
45	1
46	1
47	1
48	1
49	1
50	1
51	1
52	1
53	1
54	1
55	1
56	1
57	1
58	1
59	1
60	1
61	1
62	1
63	1
64	1
65	1
66	1
67	1
68	1
69	1
70	1
71	1
72	1
73	1
74	1
75	1
76	1
77	1
78	1
79	1
80	1
81	1
82	1
83	1
84	1
85	1
86	1
87	1
88	1
89	1
90	1
91	1
92	1
93	1
94	1
95	1
96	1
97	1
98	1
99	1
100	1
101	1
102	1
103	1
104	1
105	1
106	1
107	1
108	1
109	1
110	1
111	1
112	1
113	1
114	1
115	1
116	1
117	1
118	1
119	1
120	1
121	1
122	1
123	1
124	1
125	1
126	1
127	1
128	1
129	1
130	1
131	1
132	1
133	1
134	1
135	1
136	1
137	1
138	1
139	1
140	1
141	1
142	1
143	1
144	1
145	1
146	1
147	1
148	1
149	1
150	1
151	1
152	1
153	1
154	1
155	1
156	1
157	1
158	1
159	1
160	1
161	1
162	1
163	1
164	1
165	1
166	1
167	1
168	1
169	1
170	1
171	1
172	1
173	1
174	1
175	1
176	1
177	1
178	1
179	1
180	1
181	1
182	1
183	1
184	1
185	1
186	1
187	1
188	1
189	1
190	1
191	1
192	1
193	1
194	1
195	1
196	1
197	1
198	1
199	1
200	1
201	1
202	1
203	1
204	1
205	1
206	1
207	1
208	1
209	1
210	1
211	1
212	1
213	1
214	1
215	1
216	1
217	1
218	1
219	1
220	1
221	1
222	1
223	1
224	1
225	1
226	1
227	1
228	1
229	1
230	1
231	1
232	1
233	1
234	1
235	1
236	1
237	1
238	1
239	1
240	1
241	1
242	1
243	1
244	1
245	1
246	1
247	1
248	1
249	1
250	1
251	1
252	1
253	1
254	1
255	1
256	1
257	1
258	1
259	1
260	1
261	1
262	1
263	1
264	1
265	1
266	1
267	1
268	1
269	1
270	1
271	1
272	1
273	1
274	1
275	1
DEPOT_SECTION
1
-1
EOF
